NAME /Users/henri/Research/solvers/instances/idol-instances/robust/collection/spp_dkp_Lefebvre_et_al_2026/shortest_path_8_9/uncertainty_sets/discrete_knapsack
ROWS
 N  OBJ
 L  primal_lower
COLUMNS
    MARKER    'MARKER'                 'INTORG'
    y[0,1]     OBJ        0
    y[0,1]     primal_lower -3
    y[0,2]     OBJ        0
    y[0,2]     primal_lower -0.2
    y[0,3]     OBJ        0
    y[0,3]     primal_lower -1.52
    y[0,4]     OBJ        0
    y[0,4]     primal_lower -2.86
    y[0,5]     OBJ        0
    y[0,5]     primal_lower -1.26
    y[0,6]     OBJ        0
    y[0,6]     primal_lower -4.21
    y[0,7]     OBJ        0
    y[0,7]     primal_lower -0.7
    y[1,0]     OBJ        0
    y[1,0]     primal_lower -1.72
    y[1,2]     OBJ        0
    y[1,2]     primal_lower -2.62
    y[1,3]     OBJ        0
    y[1,3]     primal_lower -2.16
    y[1,4]     OBJ        0
    y[1,4]     primal_lower -0.77
    y[1,6]     OBJ        0
    y[1,6]     primal_lower -0.97
    y[1,7]     OBJ        0
    y[1,7]     primal_lower -2.87
    y[2,0]     OBJ        0
    y[2,0]     primal_lower -1.11
    y[2,1]     OBJ        0
    y[2,1]     primal_lower -1.82
    y[2,3]     OBJ        0
    y[2,3]     primal_lower -0.21
    y[2,4]     OBJ        0
    y[2,4]     primal_lower -1.43
    y[3,0]     OBJ        0
    y[3,0]     primal_lower -1.3
    y[3,1]     OBJ        0
    y[3,1]     primal_lower -1.98
    y[3,2]     OBJ        0
    y[3,2]     primal_lower -0.27
    y[3,4]     OBJ        0
    y[3,4]     primal_lower -3.35
    y[3,6]     OBJ        0
    y[3,6]     primal_lower -3.23
    y[3,7]     OBJ        0
    y[3,7]     primal_lower -2.5
    y[4,0]     OBJ        0
    y[4,0]     primal_lower -3.17
    y[4,1]     OBJ        0
    y[4,1]     primal_lower -2.58
    y[4,2]     OBJ        0
    y[4,2]     primal_lower -2.83
    y[4,3]     OBJ        0
    y[4,3]     primal_lower -3.53
    y[4,5]     OBJ        0
    y[4,5]     primal_lower -3.86
    y[4,6]     OBJ        0
    y[4,6]     primal_lower -1.55
    y[4,7]     OBJ        0
    y[4,7]     primal_lower -1.37
    y[5,0]     OBJ        0
    y[5,0]     primal_lower -2.68
    y[5,4]     OBJ        0
    y[5,4]     primal_lower -1.65
    y[5,6]     OBJ        0
    y[5,6]     primal_lower -3.83
    y[5,7]     OBJ        0
    y[5,7]     primal_lower -3.16
    y[6,0]     OBJ        0
    y[6,0]     primal_lower -1.88
    y[6,1]     OBJ        0
    y[6,1]     primal_lower -3.89
    y[6,3]     OBJ        0
    y[6,3]     primal_lower -0.08
    y[6,4]     OBJ        0
    y[6,4]     primal_lower -2.03
    y[6,5]     OBJ        0
    y[6,5]     primal_lower -0.75
    y[6,7]     OBJ        0
    y[6,7]     primal_lower -3.74
    y[7,0]     OBJ        0
    y[7,0]     primal_lower -0.55
    y[7,1]     OBJ        0
    y[7,1]     primal_lower -3.29
    y[7,3]     OBJ        0
    y[7,3]     primal_lower -3.76
    y[7,4]     OBJ        0
    y[7,4]     primal_lower -0.77
    y[7,5]     OBJ        0
    y[7,5]     primal_lower -1.2
    y[7,6]     OBJ        0
    y[7,6]     primal_lower -4.09
    u[0,1]     OBJ        0
    u[0,1]     primal_lower 6
    u[0,2]     OBJ        0
    u[0,2]     primal_lower 63
    u[0,3]     OBJ        0
    u[0,3]     primal_lower 43
    u[0,4]     OBJ        0
    u[0,4]     primal_lower 43
    u[0,5]     OBJ        0
    u[0,5]     primal_lower 45
    u[0,6]     OBJ        0
    u[0,6]     primal_lower 77
    u[0,7]     OBJ        0
    u[0,7]     primal_lower 26
    u[1,0]     OBJ        0
    u[1,0]     primal_lower 13
    u[1,2]     OBJ        0
    u[1,2]     primal_lower 27
    u[1,3]     OBJ        0
    u[1,3]     primal_lower 46
    u[1,4]     OBJ        0
    u[1,4]     primal_lower 96
    u[1,6]     OBJ        0
    u[1,6]     primal_lower 10
    u[1,7]     OBJ        0
    u[1,7]     primal_lower 16
    u[2,0]     OBJ        0
    u[2,0]     primal_lower 62
    u[2,1]     OBJ        0
    u[2,1]     primal_lower 98
    u[2,3]     OBJ        0
    u[2,3]     primal_lower 76
    u[2,4]     OBJ        0
    u[2,4]     primal_lower 56
    u[3,0]     OBJ        0
    u[3,0]     primal_lower 39
    u[3,1]     OBJ        0
    u[3,1]     primal_lower 61
    u[3,2]     OBJ        0
    u[3,2]     primal_lower 83
    u[3,4]     OBJ        0
    u[3,4]     primal_lower 58
    u[3,6]     OBJ        0
    u[3,6]     primal_lower 4
    u[3,7]     OBJ        0
    u[3,7]     primal_lower 54
    u[4,0]     OBJ        0
    u[4,0]     primal_lower 84
    u[4,1]     OBJ        0
    u[4,1]     primal_lower 27
    u[4,2]     OBJ        0
    u[4,2]     primal_lower 8
    u[4,3]     OBJ        0
    u[4,3]     primal_lower 43
    u[4,5]     OBJ        0
    u[4,5]     primal_lower 51
    u[4,6]     OBJ        0
    u[4,6]     primal_lower 39
    u[4,7]     OBJ        0
    u[4,7]     primal_lower 88
    u[5,0]     OBJ        0
    u[5,0]     primal_lower 67
    u[5,4]     OBJ        0
    u[5,4]     primal_lower 73
    u[5,6]     OBJ        0
    u[5,6]     primal_lower 52
    u[5,7]     OBJ        0
    u[5,7]     primal_lower 31
    u[6,0]     OBJ        0
    u[6,0]     primal_lower 63
    u[6,1]     OBJ        0
    u[6,1]     primal_lower 47
    u[6,3]     OBJ        0
    u[6,3]     primal_lower 52
    u[6,4]     OBJ        0
    u[6,4]     primal_lower 19
    u[6,5]     OBJ        0
    u[6,5]     primal_lower 93
    u[6,7]     OBJ        0
    u[6,7]     primal_lower 2
    u[7,0]     OBJ        0
    u[7,0]     primal_lower 44
    u[7,1]     OBJ        0
    u[7,1]     primal_lower 78
    u[7,3]     OBJ        0
    u[7,3]     primal_lower 50
    u[7,4]     OBJ        0
    u[7,4]     primal_lower 56
    u[7,5]     OBJ        0
    u[7,5]     primal_lower 63
    u[7,6]     OBJ        0
    u[7,6]     primal_lower 21
    MARKER    'MARKER'                 'INTEND'
RHS
    RHS       primal_lower 204
BOUNDS
 LI BND       y[0,1]     0
 UI BND       y[0,1]     1
 LI BND       y[0,2]     0
 UI BND       y[0,2]     1
 LI BND       y[0,3]     0
 UI BND       y[0,3]     1
 LI BND       y[0,4]     0
 UI BND       y[0,4]     1
 LI BND       y[0,5]     0
 UI BND       y[0,5]     1
 LI BND       y[0,6]     0
 UI BND       y[0,6]     1
 LI BND       y[0,7]     0
 UI BND       y[0,7]     1
 LI BND       y[1,0]     0
 UI BND       y[1,0]     1
 LI BND       y[1,2]     0
 UI BND       y[1,2]     1
 LI BND       y[1,3]     0
 UI BND       y[1,3]     1
 LI BND       y[1,4]     0
 UI BND       y[1,4]     1
 LI BND       y[1,6]     0
 UI BND       y[1,6]     1
 LI BND       y[1,7]     0
 UI BND       y[1,7]     1
 LI BND       y[2,0]     0
 UI BND       y[2,0]     1
 LI BND       y[2,1]     0
 UI BND       y[2,1]     1
 LI BND       y[2,3]     0
 UI BND       y[2,3]     1
 LI BND       y[2,4]     0
 UI BND       y[2,4]     1
 LI BND       y[3,0]     0
 UI BND       y[3,0]     1
 LI BND       y[3,1]     0
 UI BND       y[3,1]     1
 LI BND       y[3,2]     0
 UI BND       y[3,2]     1
 LI BND       y[3,4]     0
 UI BND       y[3,4]     1
 LI BND       y[3,6]     0
 UI BND       y[3,6]     1
 LI BND       y[3,7]     0
 UI BND       y[3,7]     1
 LI BND       y[4,0]     0
 UI BND       y[4,0]     1
 LI BND       y[4,1]     0
 UI BND       y[4,1]     1
 LI BND       y[4,2]     0
 UI BND       y[4,2]     1
 LI BND       y[4,3]     0
 UI BND       y[4,3]     1
 LI BND       y[4,5]     0
 UI BND       y[4,5]     1
 LI BND       y[4,6]     0
 UI BND       y[4,6]     1
 LI BND       y[4,7]     0
 UI BND       y[4,7]     1
 LI BND       y[5,0]     0
 UI BND       y[5,0]     1
 LI BND       y[5,4]     0
 UI BND       y[5,4]     1
 LI BND       y[5,6]     0
 UI BND       y[5,6]     1
 LI BND       y[5,7]     0
 UI BND       y[5,7]     1
 LI BND       y[6,0]     0
 UI BND       y[6,0]     1
 LI BND       y[6,1]     0
 UI BND       y[6,1]     1
 LI BND       y[6,3]     0
 UI BND       y[6,3]     1
 LI BND       y[6,4]     0
 UI BND       y[6,4]     1
 LI BND       y[6,5]     0
 UI BND       y[6,5]     1
 LI BND       y[6,7]     0
 UI BND       y[6,7]     1
 LI BND       y[7,0]     0
 UI BND       y[7,0]     1
 LI BND       y[7,1]     0
 UI BND       y[7,1]     1
 LI BND       y[7,3]     0
 UI BND       y[7,3]     1
 LI BND       y[7,4]     0
 UI BND       y[7,4]     1
 LI BND       y[7,5]     0
 UI BND       y[7,5]     1
 LI BND       y[7,6]     0
 UI BND       y[7,6]     1
 LI BND       u[0,1]     0
 UI BND       u[0,1]     1
 LI BND       u[0,2]     0
 UI BND       u[0,2]     1
 LI BND       u[0,3]     0
 UI BND       u[0,3]     1
 LI BND       u[0,4]     0
 UI BND       u[0,4]     1
 LI BND       u[0,5]     0
 UI BND       u[0,5]     1
 LI BND       u[0,6]     0
 UI BND       u[0,6]     1
 LI BND       u[0,7]     0
 UI BND       u[0,7]     1
 LI BND       u[1,0]     0
 UI BND       u[1,0]     1
 LI BND       u[1,2]     0
 UI BND       u[1,2]     1
 LI BND       u[1,3]     0
 UI BND       u[1,3]     1
 LI BND       u[1,4]     0
 UI BND       u[1,4]     1
 LI BND       u[1,6]     0
 UI BND       u[1,6]     1
 LI BND       u[1,7]     0
 UI BND       u[1,7]     1
 LI BND       u[2,0]     0
 UI BND       u[2,0]     1
 LI BND       u[2,1]     0
 UI BND       u[2,1]     1
 LI BND       u[2,3]     0
 UI BND       u[2,3]     1
 LI BND       u[2,4]     0
 UI BND       u[2,4]     1
 LI BND       u[3,0]     0
 UI BND       u[3,0]     1
 LI BND       u[3,1]     0
 UI BND       u[3,1]     1
 LI BND       u[3,2]     0
 UI BND       u[3,2]     1
 LI BND       u[3,4]     0
 UI BND       u[3,4]     1
 LI BND       u[3,6]     0
 UI BND       u[3,6]     1
 LI BND       u[3,7]     0
 UI BND       u[3,7]     1
 LI BND       u[4,0]     0
 UI BND       u[4,0]     1
 LI BND       u[4,1]     0
 UI BND       u[4,1]     1
 LI BND       u[4,2]     0
 UI BND       u[4,2]     1
 LI BND       u[4,3]     0
 UI BND       u[4,3]     1
 LI BND       u[4,5]     0
 UI BND       u[4,5]     1
 LI BND       u[4,6]     0
 UI BND       u[4,6]     1
 LI BND       u[4,7]     0
 UI BND       u[4,7]     1
 LI BND       u[5,0]     0
 UI BND       u[5,0]     1
 LI BND       u[5,4]     0
 UI BND       u[5,4]     1
 LI BND       u[5,6]     0
 UI BND       u[5,6]     1
 LI BND       u[5,7]     0
 UI BND       u[5,7]     1
 LI BND       u[6,0]     0
 UI BND       u[6,0]     1
 LI BND       u[6,1]     0
 UI BND       u[6,1]     1
 LI BND       u[6,3]     0
 UI BND       u[6,3]     1
 LI BND       u[6,4]     0
 UI BND       u[6,4]     1
 LI BND       u[6,5]     0
 UI BND       u[6,5]     1
 LI BND       u[6,7]     0
 UI BND       u[6,7]     1
 LI BND       u[7,0]     0
 UI BND       u[7,0]     1
 LI BND       u[7,1]     0
 UI BND       u[7,1]     1
 LI BND       u[7,3]     0
 UI BND       u[7,3]     1
 LI BND       u[7,4]     0
 UI BND       u[7,4]     1
 LI BND       u[7,5]     0
 UI BND       u[7,5]     1
 LI BND       u[7,6]     0
 UI BND       u[7,6]     1
ENDATA
